NAME : traveling-santa-2018-prime-paths.29005.tour
COMMENT : Length = 29005
COMMENT : Found by LKH [Keld Helsgaun] Sun Jun 12 20:00:32 2022
TYPE : TOUR
DIMENSION : 100
TOUR_SECTION
1
68
93
56
29
64
96
5
35
31
98
24
38
34
16
63
42
33
69
28
67
39
75
25
41
94
40
72
55
78
60
74
50
6
27
97
8
47
58
92
89
30
26
46
83
80
10
90
70
13
59
44
91
32
37
99
2
82
61
9
71
79
52
43
87
62
11
3
19
81
22
53
88
100
77
14
36
48
17
23
66
85
57
21
73
4
12
51
45
54
86
20
95
49
7
18
84
15
65
76
-1
EOF
